* ENCODING=ISO-8859-1
NAME          IloCplex
ROWS
 N  obj1    
 L  c1      
 E  c2      
 E  c3      
 E  c4      
 E  c5      
 E  c6      
 E  c7      
 E  c8      
 E  c9      
 E  c10     
 E  c11     
 E  c12     
 E  c13     
 E  c14     
 E  c15     
 E  c16     
 E  c17     
 E  c18     
 E  c19     
 E  c20     
 E  c21     
 L  c22     
 L  c23     
 L  c24     
 L  c25     
 L  c26     
 L  c27     
 L  c28     
 L  c29     
 L  c30     
 L  c31     
 L  c32     
 L  c33     
 L  c34     
 L  c35     
 L  c36     
 L  c37     
 L  c38     
 L  c39     
 L  c40     
 L  c41     
 L  c42     
 L  c43     
 L  c44     
 L  c45     
 L  c46     
 L  c47     
 L  c48     
 L  c49     
 L  c50     
 L  c51     
 L  c52     
 L  c53     
 L  c54     
 L  c55     
 L  c56     
 L  c57     
 L  c58     
 L  c59     
 L  c60     
 L  c61     
 L  c62     
 L  c63     
 L  c64     
 L  c65     
COLUMNS
    y_a_35    c1                              1
    y_a_35    c19                            -1
    y_a_35    c20                             1
    y_a_35    c57                             1
    y_a_36    c1                              1
    y_a_36    c12                            -1
    y_a_36    c20                             1
    y_a_36    c58                             1
    y_a_37    c1                              1
    y_a_37    c2                             -1
    y_a_37    c20                             1
    y_a_37    c59                             1
    y_a_38    c1                              1
    y_a_38    c9                             -1
    y_a_38    c20                             1
    y_a_38    c60                             1
    y_a_0     c2                              1
    y_a_0     c3                             -1
    y_a_0     c22                             1
    y_a_1     c2                              1
    y_a_1     c5                             -1
    y_a_1     c23                             1
    y_a_2     c2                              1
    y_a_2     c10                            -1
    y_a_2     c24                             1
    y_a_3     c3                              1
    y_a_3     c4                             -1
    y_a_3     c25                             1
    y_a_4     c3                              1
    y_a_4     c5                             -1
    y_a_4     c26                             1
    y_a_5     c3                              1
    y_a_5     c7                             -1
    y_a_5     c27                             1
    y_a_6     c3                              1
    y_a_6     c9                             -1
    y_a_6     c28                             1
    y_a_7     c3                              1
    y_a_7     c15                            -1
    y_a_7     c29                             1
    y_a_8     c4                              1
    y_a_8     c5                             -1
    y_a_8     c30                             1
    y_a_9     c4                              1
    y_a_9     c8                             -1
    y_a_9     c31                             1
    y_a_10    c4                              1
    y_a_10    c9                             -1
    y_a_10    c32                             1
    y_a_11    c4                              1
    y_a_11    c11                            -1
    y_a_11    c33                             1
    y_a_12    c4                              1
    y_a_12    c12                            -1
    y_a_12    c34                             1
    y_a_13    c5                              1
    y_a_13    c6                             -1
    y_a_13    c35                             1
    y_a_14    c5                              1
    y_a_14    c10                            -1
    y_a_14    c36                             1
    y_a_15    c5                              1
    y_a_15    c14                            -1
    y_a_15    c37                             1
    y_a_16    c6                              1
    y_a_16    c8                             -1
    y_a_16    c38                             1
    y_a_17    c6                              1
    y_a_17    c11                            -1
    y_a_17    c39                             1
    y_a_18    c6                              1
    y_a_18    c17                            -1
    y_a_18    c40                             1
    y_a_19    c6                              1
    y_a_19    c19                            -1
    y_a_19    c41                             1
    y_a_20    c7                              1
    y_a_20    c14                            -1
    y_a_20    c42                             1
    y_a_21    c7                              1
    y_a_21    c17                            -1
    y_a_21    c43                             1
    y_a_22    c7                              1
    y_a_22    c18                            -1
    y_a_22    c44                             1
    y_a_23    c7                              1
    y_a_23    c19                            -1
    y_a_23    c45                             1
    y_a_42    c7                              1
    y_a_42    c21                            -1
    y_a_42    c64                             1
    y_a_24    c8                              1
    y_a_24    c13                            -1
    y_a_24    c46                             1
    y_a_25    c8                              1
    y_a_25    c18                            -1
    y_a_25    c47                             1
    y_a_26    c9                              1
    y_a_26    c10                            -1
    y_a_26    c48                             1
    y_a_27    c9                              1
    y_a_27    c16                            -1
    y_a_27    c49                             1
    y_a_28    c9                              1
    y_a_28    c18                            -1
    y_a_28    c50                             1
    y_a_29    c9                              1
    y_a_29    c19                            -1
    y_a_29    c51                             1
    y_a_41    c11                             1
    y_a_41    c21                            -1
    y_a_41    c63                             1
    y_a_30    c12                             1
    y_a_30    c13                            -1
    y_a_30    c52                             1
    y_a_31    c12                             1
    y_a_31    c16                            -1
    y_a_31    c53                             1
    y_a_32    c13                             1
    y_a_32    c17                            -1
    y_a_32    c54                             1
    y_a_33    c13                             1
    y_a_33    c19                            -1
    y_a_33    c55                             1
    y_a_34    c14                             1
    y_a_34    c16                            -1
    y_a_34    c56                             1
    y_a_39    c15                             1
    y_a_39    c21                            -1
    y_a_39    c61                             1
    y_a_40    c15                             1
    y_a_40    c21                            -1
    y_a_40    c62                             1
    y_a_43    c20                            -1
    y_a_43    c21                             1
    y_a_43    c65                             1
    MARK0000  'MARKER'                 'INTORG'
    x_a_0     c22                             6
    x_a_1     c23                            11
    x_a_2     c24                            22
    x_a_3     c25                            47
    x_a_4     c26                            40
    x_a_5     c27                            35
    x_a_6     c28                            39
    x_a_7     c29                            45
    x_a_8     c30                             2
    x_a_9     c31                            38
    x_a_10    c32                            42
    x_a_11    c33                            42
    x_a_12    c34                             9
    x_a_13    c35                            38
    x_a_14    c36                            27
    x_a_15    c37                             4
    x_a_16    c38                            29
    x_a_17    c39                             5
    x_a_18    c40                            21
    x_a_19    c41                            46
    x_a_20    c42                            46
    x_a_21    c43                            43
    x_a_22    c44                            47
    x_a_23    c45                            20
    x_a_24    c46                             6
    x_a_25    c47                             6
    x_a_26    c48                            15
    x_a_27    c49                            46
    x_a_28    c50                            47
    x_a_29    c51                            14
    x_a_30    c52                            32
    x_a_31    c53                            37
    x_a_32    c54                            25
    x_a_33    c55                             1
    x_a_34    c56                            25
    x_a_35    c57                            10
    x_a_36    c58                            10
    x_a_37    c59                            10
    x_a_38    c60                            10
    x_a_39    c61                            10
    x_a_40    c62                            10
    x_a_41    c63                            10
    x_a_42    c64                            10
    x_a_43    c65                         10000
    MARK0001  'MARKER'                 'INTEND'
RHS
    rhs       c1                              6
    rhs       c22                             6
    rhs       c23                            11
    rhs       c24                            22
    rhs       c25                            47
    rhs       c26                            40
    rhs       c27                            35
    rhs       c28                            39
    rhs       c29                            45
    rhs       c30                             2
    rhs       c31                            38
    rhs       c32                            42
    rhs       c33                            42
    rhs       c34                             9
    rhs       c35                            38
    rhs       c36                            27
    rhs       c37                             4
    rhs       c38                            29
    rhs       c39                             5
    rhs       c40                            21
    rhs       c41                            46
    rhs       c42                            46
    rhs       c43                            43
    rhs       c44                            47
    rhs       c45                            20
    rhs       c46                             6
    rhs       c47                             6
    rhs       c48                            15
    rhs       c49                            46
    rhs       c50                            47
    rhs       c51                            14
    rhs       c52                            32
    rhs       c53                            37
    rhs       c54                            25
    rhs       c55                             1
    rhs       c56                            25
    rhs       c57                            10
    rhs       c58                            10
    rhs       c59                            10
    rhs       c60                            10
    rhs       c61                            10
    rhs       c62                            10
    rhs       c63                            10
    rhs       c64                            10
    rhs       c65                         10000
BOUNDS
 BV bnd       x_a_0   
 BV bnd       x_a_1   
 BV bnd       x_a_2   
 BV bnd       x_a_3   
 BV bnd       x_a_4   
 BV bnd       x_a_5   
 BV bnd       x_a_6   
 BV bnd       x_a_7   
 BV bnd       x_a_8   
 BV bnd       x_a_9   
 BV bnd       x_a_10  
 BV bnd       x_a_11  
 BV bnd       x_a_12  
 BV bnd       x_a_13  
 BV bnd       x_a_14  
 BV bnd       x_a_15  
 BV bnd       x_a_16  
 BV bnd       x_a_17  
 BV bnd       x_a_18  
 BV bnd       x_a_19  
 BV bnd       x_a_20  
 BV bnd       x_a_21  
 BV bnd       x_a_22  
 BV bnd       x_a_23  
 BV bnd       x_a_24  
 BV bnd       x_a_25  
 BV bnd       x_a_26  
 BV bnd       x_a_27  
 BV bnd       x_a_28  
 BV bnd       x_a_29  
 BV bnd       x_a_30  
 BV bnd       x_a_31  
 BV bnd       x_a_32  
 BV bnd       x_a_33  
 BV bnd       x_a_34  
 BV bnd       x_a_35  
 BV bnd       x_a_36  
 BV bnd       x_a_37  
 BV bnd       x_a_38  
 BV bnd       x_a_39  
 BV bnd       x_a_40  
 BV bnd       x_a_41  
 BV bnd       x_a_42  
 BV bnd       x_a_43  
ENDATA
